8558 16442 1382
15132 12868 1758
12455 14545 1787
16444 9556 1538
15846 12154 1692
12903 13097 1801
12128 15872 1661
15595 13405 1675
13811 15189 1644
15035 12965 1766
16330 10670 1605
14022 14978 1694
9574 16426 1491
16012 11988 1652
14673 14327 1741
14642 14358 1687
16162 11838 1574
14090 13910 1781
13486 13514 1796
16125 11875 1617
14201 14799 1736
16160 11840 1583
15678 13322 1608
12586 15414 1751
13279 14721 1765
10735 16265 1635
13496 13504 1796
14859 14141 1738
16113 11887 1625
15616 12384 1715
15264 13736 1725
16417 10583 1547
15494 13506 1702
